2796
172
161
175
160
181
182
183
184
185
186
187
188
189
190
191
192
193
194
195
196
197
198
199
200
201
202
203
204
205
206
207
208
209
210
211
212
213
214
215
216
217
218
219
220
221
222
223
224
225
226
227
228
229
230
251
250
247
244
240
239
231
232
233
234
235
236
237
238
246
245
241
243
242
2
1
0
3
4
277
6
5
279
278
248
249
256
255
252
253
254
257
258
259
260
261
262
263
264
265
266
138
139
179
180
176
177
151
152
156
153
155
154
129
21
20
19
18
17
133
132
131
130
128
127
126
30
31
32
29
28
27
26
22
25
23
24
14
15
13
12
11
10
8
7
9
276
275
274
273
272
271
16
270
134
135
269
268
136
137
267
140
141
142
143
144
145
146
147
148
149
150
178
159
158
157
119
120
121
122
123
124
125
33
34
35
36
37
38
39
40
41
42
43
60
61
62
63
64
71
72
73
74
75
76
77
78
79
80
81
82
83
87
86
116
114
111
110
108
104
103
102
101
100
99
93
94
95
96
97
98
92
91
90
109
112
113
115
117
118
59
44
45
46
47
48
49
50
51
52
53
54
55
56
57
58
68
69
70
67
66
65
85
84
88
89
105
106
107
173
174
162
163
164
165
166
167
168
169
170
171
